
Gurobi 7.0.2 (linux64, Matlab) logging started Sun Sep  2 08:55:16 2018


Gurobi 7.0.2 (linux64) logging started Sun Sep  2 08:55:16 2018

Optimize a model with 37504 rows, 18973 columns and 81653 nonzeros
Coefficient statistics:
  Matrix range     [1e+00, 1e+07]
  Objective range  [1e+00, 3e+00]
  Bounds range     [1e-03, 1e+00]
  RHS range        [5e+07, 5e+07]
Iteration    Objective       Primal Inf.    Dual Inf.      Time
       0   -4.0618117e+02   0.000000e+00   0.000000e+00      0s

Solved in 0 iterations and 0.02 seconds
Optimal objective -4.061811727e+02
